benchmarks_CP/INST_36x36/30/inst36x36_30_98.dzn
S=6;
start=[|
-1,	-1,	2,	-1,	-1,	-1,	-1,	-1,	9,	20,	-1,	-1,	-1,	-1,	32,	-1,	-1,	30,	-1,	-1,	-1,	3,	-1,	-1,	-1,	33,	-1,	6,	-1,	-1,	-1,	-1,	-1,	35,	24,	-1|
-1,	-1,	-1,	-1,	-1,	-1,	1,	34,	-1,	-1,	24,	-1,	-1,	-1,	26,	-1,	-1,	15,	-1,	21,	-1,	-1,	29,	-1,	-1,	-1,	-1,	8,	-1,	-1,	31,	11,	-1,	-1,	19,	-1|
16,	25,	-1,	29,	-1,	1,	30,	-1,	35,	-1,	-1,	-1,	8,	-1,	-1,	-1,	4,	34,	-1,	31,	28,	15,	-1,	-1,	-1,	-1,	-1,	-1,	3,	19,	2,	-1,	14,	-1,	-1,	22|
-1,	-1,	-1,	-1,	-1,	-1,	-1,	36,	14,	-1,	-1,	3,	23,	-1,	-1,	-1,	20,	-1,	10,	-1,	-1,	-1,	-1,	-1,	-1,	-1,	29,	-1,	-1,	-1,	16,	-1,	-1,	-1,	-1,	-1|
-1,	33,	-1,	-1,	-1,	10,	-1,	-1,	-1,	16,	-1,	-1,	-1,	11,	-1,	31,	-1,	-1,	-1,	30,	-1,	-1,	-1,	-1,	-1,	35,	-1,	-1,	-1,	5,	-1,	26,	20,	4,	-1,	-1|
-1,	-1,	-1,	-1,	-1,	15,	-1,	29,	2,	-1,	-1,	-1,	14,	6,	-1,	-1,	-1,	-1,	-1,	-1,	32,	4,	-1,	27,	-1,	24,	7,	-1,	-1,	-1,	-1,	5,	-1,	-1,	-1,	12|
-1,	35,	-1,	-1,	9,	6,	16,	3,	-1,	-1,	-1,	-1,	15,	-1,	-1,	-1,	27,	-1,	-1,	-1,	-1,	-1,	24,	-1,	-1,	21,	5,	-1,	-1,	-1,	-1,	-1,	-1,	7,	-1,	-1|
-1,	-1,	-1,	-1,	-1,	-1,	4,	-1,	-1,	-1,	27,	-1,	-1,	-1,	-1,	-1,	-1,	-1,	-1,	-1,	18,	-1,	28,	-1,	-1,	-1,	-1,	-1,	35,	-1,	-1,	-1,	-1,	-1,	-1,	-1|
-1,	-1,	-1,	-1,	23,	-1,	-1,	-1,	25,	-1,	29,	10,	7,	-1,	18,	5,	-1,	8,	3,	17,	-1,	-1,	-1,	-1,	-1,	-1,	-1,	-1,	-1,	27,	-1,	-1,	-1,	-1,	-1,	-1|
-1,	-1,	-1,	-1,	-1,	-1,	-1,	22,	-1,	-1,	-1,	-1,	32,	-1,	-1,	-1,	-1,	-1,	-1,	9,	-1,	6,	20,	-1,	1,	30,	8,	-1,	-1,	-1,	28,	13,	-1,	10,	-1,	-1|
34,	-1,	-1,	-1,	20,	11,	-1,	-1,	-1,	-1,	-1,	8,	-1,	33,	14,	-1,	-1,	-1,	-1,	-1,	-1,	32,	-1,	5,	-1,	-1,	-1,	-1,	-1,	-1,	-1,	-1,	-1,	1,	-1,	-1|
-1,	-1,	7,	-1,	-1,	-1,	-1,	-1,	-1,	23,	-1,	20,	-1,	36,	-1,	-1,	-1,	6,	12,	-1,	35,	-1,	-1,	-1,	-1,	-1,	-1,	-1,	-1,	-1,	18,	-1,	25,	5,	17,	3|
13,	-1,	31,	22,	19,	-1,	-1,	-1,	-1,	-1,	-1,	-1,	-1,	12,	-1,	25,	32,	23,	-1,	-1,	-1,	8,	-1,	-1,	-1,	2,	9,	-1,	-1,	-1,	-1,	-1,	34,	29,	-1,	-1|
-1,	11,	-1,	-1,	-1,	-1,	32,	-1,	-1,	12,	-1,	-1,	24,	-1,	-1,	-1,	-1,	-1,	-1,	-1,	-1,	-1,	-1,	-1,	5,	16,	26,	14,	-1,	-1,	-1,	-1,	-1,	-1,	-1,	-1|
-1,	-1,	-1,	36,	-1,	24,	-1,	17,	-1,	-1,	10,	9,	-1,	21,	-1,	-1,	-1,	-1,	18,	11,	-1,	12,	-1,	-1,	35,	-1,	-1,	-1,	-1,	-1,	-1,	-1,	5,	-1,	-1,	-1|
-1,	34,	-1,	33,	-1,	35,	-1,	-1,	-1,	28,	20,	16,	17,	-1,	-1,	30,	-1,	5,	-1,	-1,	-1,	29,	26,	21,	-1,	-1,	-1,	-1,	-1,	-1,	-1,	-1,	1,	-1,	27,	-1|
-1,	-1,	-1,	5,	-1,	-1,	29,	-1,	-1,	-1,	-1,	-1,	4,	7,	-1,	1,	-1,	-1,	22,	-1,	-1,	-1,	-1,	-1,	23,	-1,	-1,	-1,	-1,	31,	25,	-1,	30,	-1,	28,	-1|
26,	17,	-1,	-1,	-1,	-1,	-1,	-1,	-1,	-1,	-1,	-1,	-1,	-1,	-1,	-1,	13,	-1,	-1,	23,	1,	-1,	34,	-1,	-1,	-1,	-1,	-1,	22,	-1,	-1,	-1,	-1,	-1,	-1,	-1|
-1,	-1,	10,	34,	-1,	-1,	-1,	-1,	6,	-1,	-1,	-1,	30,	-1,	-1,	35,	14,	-1,	-1,	32,	-1,	-1,	-1,	24,	25,	18,	-1,	-1,	-1,	2,	-1,	1,	-1,	11,	-1,	-1|
-1,	-1,	17,	-1,	-1,	23,	34,	-1,	12,	-1,	16,	18,	-1,	22,	-1,	-1,	-1,	-1,	-1,	-1,	-1,	-1,	35,	-1,	-1,	-1,	-1,	-1,	-1,	-1,	-1,	-1,	9,	15,	30,	-1|
29,	-1,	-1,	-1,	-1,	33,	-1,	-1,	-1,	36,	-1,	-1,	-1,	31,	-1,	-1,	17,	27,	-1,	-1,	-1,	-1,	12,	-1,	-1,	-1,	30,	-1,	-1,	-1,	8,	-1,	-1,	32,	-1,	-1|
32,	36,	21,	-1,	2,	-1,	-1,	-1,	20,	-1,	-1,	-1,	-1,	-1,	-1,	-1,	-1,	-1,	-1,	-1,	23,	-1,	-1,	-1,	-1,	-1,	-1,	-1,	12,	15,	5,	25,	-1,	-1,	-1,	-1|
20,	-1,	-1,	19,	-1,	-1,	-1,	-1,	-1,	-1,	30,	-1,	-1,	-1,	6,	3,	-1,	36,	-1,	-1,	-1,	14,	2,	31,	28,	4,	-1,	-1,	26,	22,	-1,	35,	10,	-1,	-1,	-1|
-1,	22,	-1,	-1,	-1,	9,	17,	14,	-1,	-1,	-1,	2,	21,	26,	-1,	-1,	-1,	-1,	-1,	-1,	-1,	20,	-1,	28,	-1,	-1,	-1,	-1,	-1,	-1,	-1,	-1,	-1,	19,	-1,	-1|
5,	20,	-1,	13,	29,	-1,	-1,	-1,	-1,	-1,	-1,	11,	-1,	15,	17,	-1,	-1,	-1,	-1,	-1,	-1,	24,	-1,	3,	-1,	25,	4,	-1,	-1,	8,	-1,	-1,	-1,	27,	-1,	-1|
-1,	-1,	-1,	-1,	-1,	2,	-1,	13,	8,	-1,	-1,	-1,	-1,	-1,	5,	-1,	-1,	-1,	26,	28,	19,	-1,	-1,	34,	-1,	-1,	20,	-1,	-1,	35,	-1,	15,	-1,	21,	-1,	16|
-1,	-1,	1,	-1,	36,	-1,	-1,	-1,	10,	-1,	-1,	-1,	-1,	27,	-1,	21,	-1,	13,	-1,	-1,	-1,	17,	-1,	25,	30,	34,	3,	-1,	-1,	-1,	-1,	18,	-1,	-1,	-1,	-1|
-1,	-1,	-1,	-1,	-1,	-1,	-1,	-1,	-1,	7,	-1,	-1,	-1,	24,	2,	20,	-1,	-1,	13,	14,	-1,	-1,	-1,	16,	-1,	-1,	-1,	-1,	-1,	-1,	-1,	-1,	-1,	-1,	-1,	29|
-1,	-1,	-1,	-1,	22,	-1,	-1,	-1,	-1,	14,	-1,	-1,	-1,	-1,	-1,	-1,	-1,	-1,	-1,	-1,	-1,	-1,	-1,	-1,	-1,	-1,	32,	9,	-1,	-1,	-1,	-1,	-1,	-1,	-1,	-1|
-1,	10,	28,	-1,	16,	-1,	-1,	-1,	-1,	-1,	-1,	4,	18,	-1,	-1,	-1,	23,	-1,	-1,	-1,	-1,	30,	-1,	-1,	-1,	-1,	-1,	21,	-1,	-1,	-1,	-1,	-1,	-1,	-1,	-1|
25,	-1,	30,	23,	-1,	-1,	15,	-1,	-1,	-1,	-1,	-1,	-1,	18,	1,	-1,	-1,	-1,	-1,	-1,	24,	-1,	-1,	12,	-1,	-1,	-1,	-1,	-1,	-1,	36,	-1,	35,	-1,	9,	-1|
-1,	28,	33,	1,	-1,	-1,	6,	-1,	-1,	-1,	-1,	12,	-1,	-1,	-1,	-1,	-1,	-1,	9,	-1,	-1,	-1,	13,	-1,	-1,	23,	27,	-1,	-1,	10,	-1,	14,	-1,	2,	-1,	-1|
-1,	-1,	15,	-1,	32,	-1,	-1,	-1,	19,	25,	34,	13,	27,	-1,	4,	-1,	-1,	-1,	-1,	-1,	-1,	-1,	-1,	-1,	-1,	36,	-1,	18,	6,	29,	-1,	23,	-1,	33,	-1,	28|
-1,	2,	-1,	27,	-1,	36,	-1,	-1,	-1,	-1,	23,	35,	20,	-1,	-1,	-1,	-1,	11,	-1,	-1,	-1,	19,	-1,	32,	-1,	-1,	-1,	-1,	5,	-1,	-1,	-1,	13,	-1,	-1,	-1|
19,	-1,	14,	10,	-1,	13,	-1,	2,	-1,	29,	31,	-1,	-1,	-1,	-1,	-1,	-1,	-1,	-1,	-1,	-1,	11,	-1,	-1,	3,	-1,	-1,	-1,	-1,	-1,	-1,	32,	-1,	-1,	-1,	-1|
-1,	3,	-1,	-1,	21,	-1,	-1,	-1,	32,	-1,	-1,	-1,	-1,	-1,	-1,	-1,	-1,	-1,	-1,	-1,	7,	-1,	30,	23,	8,	-1,	-1,	-1,	-1,	9,	27,	17,	-1,	-1,	-1,	-1|];
